\ENCODING=ISO-8859-1
\Problem name: IloCplex

Maximize
 obj1: 92 X(0,0) + 92 X(0,1) + 57 X(1,0) + 57 X(1,1) + 49 X(2,0) + 49 X(2,1)
       + 68 X(3,0) + 68 X(3,1) + 60 X(4,0) + 60 X(4,1) + 43 X(5,0) + 43 X(5,1)
       + 67 X(6,0) + 67 X(6,1) + 84 X(7,0) + 84 X(7,1) + 87 X(8,0) + 87 X(8,1)
       + 72 X(9,0) + 72 X(9,1)
Subject To
 R_Item(0):     X(0,0) + X(0,1) <= 1
 R_Item(1):     X(1,0) + X(1,1) <= 1
 R_Item(2):     X(2,0) + X(2,1) <= 1
 R_Item(3):     X(3,0) + X(3,1) <= 1
 R_Item(4):     X(4,0) + X(4,1) <= 1
 R_Item(5):     X(5,0) + X(5,1) <= 1
 R_Item(6):     X(6,0) + X(6,1) <= 1
 R_Item(7):     X(7,0) + X(7,1) <= 1
 R_Item(8):     X(8,0) + X(8,1) <= 1
 R_Item(9):     X(9,0) + X(9,1) <= 1
 R_Capacity(0): 23 X(0,0) + 31 X(1,0) + 29 X(2,0) + 44 X(3,0) + 53 X(4,0)
                + 38 X(5,0) + 63 X(6,0) + 85 X(7,0) + 89 X(8,0) + 82 X(9,0)
                <= 70
 R_Capacity(1): 23 X(0,1) + 31 X(1,1) + 29 X(2,1) + 44 X(3,1) + 53 X(4,1)
                + 38 X(5,1) + 63 X(6,1) + 85 X(7,1) + 89 X(8,1) + 82 X(9,1)
                <= 127
Bounds
 0 <= X(0,0) <= 1
 0 <= X(0,1) <= 1
 0 <= X(1,0) <= 1
 0 <= X(1,1) <= 1
 0 <= X(2,0) <= 1
 0 <= X(2,1) <= 1
 0 <= X(3,0) <= 1
 0 <= X(3,1) <= 1
 0 <= X(4,0) <= 1
 0 <= X(4,1) <= 1
 0 <= X(5,0) <= 1
 0 <= X(5,1) <= 1
 0 <= X(6,0) <= 1
 0 <= X(6,1) <= 1
 0 <= X(7,0) <= 1
 0 <= X(7,1) <= 1
 0 <= X(8,0) <= 1
 0 <= X(8,1) <= 1
 0 <= X(9,0) <= 1
 0 <= X(9,1) <= 1
Binaries
 X(0,0)  X(0,1)  X(1,0)  X(1,1)  X(2,0)  X(2,1)  X(3,0)  X(3,1)  X(4,0) 
 X(4,1)  X(5,0)  X(5,1)  X(6,0)  X(6,1)  X(7,0)  X(7,1)  X(8,0)  X(8,1) 
 X(9,0)  X(9,1) 
End
